c --- [ banner ] -------------------------------------------------------------
c 
c CaDiCaL SAT Solver
c Copyright (c) 2016-2025
c A. Biere, M. Fleury, N. Froleyks, K. Fazekas, F. Pollitt, T. Faller
c JKU Linz, University of Freiburg, TU Wien
c 
c Version 3.0.0 7b99c07f0bcab5824a5a3ce62c7066554017f641
c Apple clang version 21.0.0 (clang-2100.0.123.102) -Wall -Wextra -O3 -DNDEBUG -DNCLOSEFROM
c Thu Apr 23 22:35:47 PDT 2026 Darwin dada-mun-26.local 25.4.0 arm64
c 
c --- [ limit ] --------------------------------------------------------------
c 
c setting time limit to 180 seconds real time (due to '-t 180')
c 
c --- [ parsing input ] ------------------------------------------------------
c 
c reading DIMACS file from '/private/tmp/p97-ordinal-continuationOrder.cnf'
c opening file to read '/private/tmp/p97-ordinal-continuationOrder.cnf'
c found 'p cnf 57561 310686' header
c parsed 310686 clauses in 0.06 seconds process time
c 
c --- [ options ] ------------------------------------------------------------
c 
c   --compact=false                (different from default 'true')
c   --congruence=false             (different from default 'true')
c   --decompose=false              (different from default 'true')
c   --deduplicate=false            (different from default 'true')
c   --eagersubsume=false           (different from default 'true')
c   --elim=false                   (different from default 'true')
c   --factor=false                 (different from default 'true')
c   --factorunbump=false           (different from default 'true')
c   --fastelim=false               (different from default 'true')
c   --inprobing=false              (different from default 'true')
c   --inprocessing=false           (different from default 'true')
c   --preprocesslight=false        (different from default 'true')
c   --probe=false                  (different from default 'true')
c   --subsume=false                (different from default 'true')
c   --sweep=false                  (different from default 'true')
c   --ternary=false                (different from default 'true')
c   --transred=false               (different from default 'true')
c   --vivify=false                 (different from default 'true')
c 
c --- [ solving ] ------------------------------------------------------------
c 
c time measured in process time since initialization
c 
c  seconds  reduction conflicts       size tier2        variables
c         MB    restarts   redundant    glue  trail          remaining
c          level     rate       size/glu tier1  irredundant
c 
c *  0.06  0  0 0   0  0    0    0 0.0 0 0 2 6  0% 309894 56921 99%
c )  0.06  0  0 0   0  0    0    0 0.0 0 0 2 6  0% 309894 56921 99%
c {  0.06  0  0 0   0  0    0    0 0.0 0 0 2 6  0% 309894 56921 99%
c i  0.06  0  7 0   0  3    5    3 2.3 2 1 2 6  1% 309894 56701 99%
c i  0.06  0 10 0   0  3   11    8 2.1 2 1 2 6  2% 309894 56579 98%
c i  0.06  0 63 0   0  6   59   53 1.8 2 1 2 6  6% 309894 56578 98%
c i  0.06  0 137 0  15 26  129  109 1.4 4 3 2 6  8% 309894 56566 98%
c i  0.06  0 135 0  16 26  131  110 1.4 4 3 2 6  8% 309894 56563 98%
c -  0.10  0 465 1  52 187  300  207 1.6 7 4 2 6 14% 305570 56562 98%
c -  0.23  0 230 2 156 76  944  612 1.6 8 5 2 6 20% 305570 56562 98%
c }  0.24  0 224 2 169 74 1002  660 1.6 8 5 2 6 20% 305570 56562 98%
c [  0.24  0  0 2 169  0 1002  660 0.0 0 0 2 6  0% 305570 56562 98%
c O  0.24  0 28 2 169 29 1003  661 1.1 15 14 2 6  5% 305570 56562 98%
c i  0.24  0 34 2 169  3 1048  696 1.3 11 9 2 6  6% 305570 56561 98%
c ]  0.36  0 64 2 169  2 1421 1063 4.0 46 11 2 6 27% 305570 56561 98%
c {  0.36  0 224 2 169 74 1421 1063 1.6 8 5 2 6 20% 305570 56561 98%
c i  0.38  0 214 2 182 69 1522 1157 1.6 9 5 2 6 20% 305570 56560 98%
c i  0.40  0 197 2 197 59 1748 1345 1.6 9 5 2 6 20% 305570 56553 98%
c -  0.45  0 175 3 239 50 2087 1174 1.6 9 6 2 6 19% 305523 56553 98%
c i  0.52  0 161 3 319 43 2639 1644 1.7 10 6 2 6 20% 305523 56548 98%
c 
c  seconds   reduction conflicts       size  tier2        variables
c         MB     restarts   redundant     glue  trail          remaining
c           level     rate       size/glue tier1  irredundant
c 
c O  0.56  0 155 3 351 39 3005 1965 1.7 10 6 2 6 20% 305523 56543 98%
c -  0.68  0 147 4 435 34 3783 1970 1.7 10 6 2 6 22% 305470 56543 98%
c #  0.88  0 139 4 553 24 6008 3779 1.7 10 6 2 3 24% 305470 56543 98%
c -  0.90  0 139 5 560 24 6067 2504 1.7 10 6 2 3 24% 305470 56543 98%
c }  1.04  0 136 5 621 21 7388 3582 1.8 10 6 2 3 25% 305470 56543 98%
c [  1.04  0 64 5 621  2 7388 3582 4.0 46 11 2 6 27% 305470 56543 98%
c i  1.10  0 102 5 622  3 8113 4255 3.1 27 9 2 6 33% 305470 56536 98%
c -  1.22  0 92 6 622  3 8959 3442 2.7 26 9 2 6 31% 305429 56536 98%
c i  1.26  0 87 6 623  3 9370 3791 2.7 24 9 3 8 29% 305429 56533 98%
c I  1.32  0 85 6 623  3 10010 4382 2.6 24 9 3 8 30% 305429 56533 98%
c i  1.49  0 84 6 624  3 12180 6373 2.3 23 10 3 8 28% 305429 56532 98%
c -  1.54  0 84 7 624  3 12472 4354 2.3 23 10 3 8 28% 305410 56532 98%
c B  1.77  0 84 7 626  3 15015 6714 2.3 23 10 3 8 29% 305410 56532 98%
c ]  1.78  0 84 7 626  3 15062 6759 2.3 23 10 3 8 29% 305410 56532 98%
c {  1.78  0 136 7 626 21 15062 6759 1.8 10 6 2 3 25% 305410 56532 98%
c -  1.92  0 130 8 716 19 16618 5444 1.8 10 6 2 3 24% 305410 56532 98%
c i  1.99  0 129 8 778 19 17328 6049 1.8 10 6 2 3 24% 305410 56531 98%
c i  2.02  0 128 8 793 18 17764 6409 1.8 10 6 2 3 24% 305410 56530 98%
c i  2.18  0 124 8 860 16 19443 7852 1.8 10 6 2 3 24% 305410 56525 98%
c B  2.37  0 122 8 1011 16 21016 9200 1.8 10 6 2 3 24% 305410 56525 98%
c 
c  seconds   reductions  conflicts       size  tier2        variables
c         MB     restarts     redundant     glue  trail          remaining
c           level      rate        size/glue tier1  irredundant
c 
c -  2.43  0 120 9 1028 16 21402 7044 1.8 10 6 2 3 24% 305371 56525 98%
c -  2.99  0 116 10 1379 14 26832 8904 1.8 10 6 2 3 24% 305371 56525 98%
c W  3.24  0 115 10 1457 14 28017 9939 1.9 11 6 2 3 24% 305371 56525 98%
c }  3.41  0 115 10 1583 14 29476 11234 1.9 11 6 2 3 24% 305371 56525 98%
c [  3.41  0 84 10 1583  3 29476 11234 2.3 23 10 3 8 29% 305371 56525 98%
c -  3.82  0 80 11 1584  3 32914 10606 2.3 25 11 3 8 31% 305371 56525 98%
c W  4.25  0 75 11 1586  3 36018 13588 2.3 28 12 3 8 31% 305371 56525 98%
c -  4.65  0 72 12 1588  3 39647 11557 2.2 29 13 3 8 30% 305371 56525 98%
c ]  4.98  0 67 12 1590  3 42602 14408 2.2 29 13 3 8 28% 305371 56525 98%
c {  4.98  0 115 12 1590 14 42602 14408 1.9 11 6 2 3 24% 305371 56525 98%
c i  4.99  0 114 12 1599 14 42665 14469 1.9 11 6 2 3 24% 305371 56523 98%
c F  5.29  0 114 12 1825 14 45021 16528 1.9 11 6 2 3 24% 305371 56522 98%
c -  5.60  0 113 13 2032 14 47036 13080 1.9 11 6 2 3 24% 305358 56522 98%
c B  6.64  0 110 13 2794 13 55023 20205 1.9 11 6 2 3 24% 305358 56522 98%
c -  6.67  0 110 14 2800 13 55085 15538 1.9 11 6 2 3 24% 305358 56522 98%
c }  7.60  0 109 14 3493 14 61851 21612 1.9 11 6 2 3 25% 305358 56522 98%
c [  7.60  0 67 14 3493  3 61851 21612 2.2 29 13 3 8 28% 305358 56522 98%
c -  7.83  0 70 15 3494  3 63796 18036 2.2 30 13 3 8 29% 305358 56522 98%
c O  8.13  0 71 15 3494  2 66024 20189 2.3 32 14 3 8 30% 305358 56522 98%
c -  8.85  0 68 16 3495  2 73172 19310 2.2 33 15 2 6 27% 305358 56522 98%
c 
c  seconds  reductions   conflicts        size   tier2        variables
c         MB     restarts      redundant     glue   trail          remaining
c          level       rate         size/glue  tier1  irredundant
c 
c B  9.40  0 65 16 3498  2 78025 23990 2.1 33 16 2 6 26% 305358 56522 98%
c - 10.13  0 65 17 3501  2 83213 19887 2.1 34 16 2 6 27% 305358 56522 98%
c ] 10.29  0 64 17 3502  2 84351 20989 2.1 35 17 2 6 27% 305358 56522 98%
c { 10.29  0 109 17 3502 14 84351 20989 1.9 11 6 2 3 25% 305358 56522 98%
c i 10.55  0 108 17 3701 13 86405 22858 1.9 11 6 2 3 24% 305358 56521 98%
c W 11.44  0 108 17 4087 13 91026 27044 1.9 11 6 2 3 25% 305348 56521 98%
c - 11.83  0 107 18 4380 13 93919 22519 1.9 11 6 2 3 25% 305348 56521 98%
c # 13.45  0 104 18 5570 13 105029 32676 1.9 12 6 2 3 24% 305348 56521 98%
c - 13.53  0 104 19 5602 13 105294 26068 1.9 12 6 2 3 25% 305348 56521 98%
c } 14.67  0 102 19 6483 13 112680 32776 1.9 12 6 2 3 25% 305348 56521 98%
c [ 14.67  0 64 19 6483  2 112680 32776 2.1 35 17 2 6 27% 305348 56521 98%
c - 15.24  0 65 20 6485  2 117338 28704 2.2 35 16 2 6 27% 305348 56521 98%
c W 15.71  0 64 20 6486  2 120030 31303 2.2 35 16 2 6 27% 305348 56521 98%
c i 16.09  0 64 20 6489  2 123187 34375 2.2 35 16 2 6 27% 305348 56520 98%
c i 16.56  0 62 20 6490  2 125720 36856 2.2 36 16 2 6 27% 305348 56519 98%
c - 17.18  0 62 21 6491  2 130052 29961 2.2 37 16 2 6 27% 305333 56519 98%
c I 18.05  0 59 21 6491  2 136035 35768 2.3 37 16 2 6 26% 305333 56519 98%
c ] 19.06  0 60 21 6492  2 143179 42702 2.3 38 17 2 7 26% 305333 56519 98%
c { 19.06  0 102 21 6492 13 143179 42702 1.9 12 6 2 3 25% 305333 56519 98%
c - 19.14  0 102 22 6520 13 143437 30701 1.9 12 6 2 3 24% 305333 56519 98%
c 
c  seconds   reductions   conflicts         size  tier2        variables
c         MB      restarts       redundant     glue  trail          remaining
c           level       rate          size/glue tier1  irredundant
c 
c B 20.59  0 100 22 7531 13 153036 39468 1.9 12 6 2 3 24% 305333 56519 98%
c - 21.40  0 100 23 8120 13 157494 33971 1.9 12 6 2 3 24% 305333 56519 98%
c W 23.93  0 98 23 9776 13 171037 46528 1.9 12 6 2 3 25% 305333 56519 98%
c - 24.17  0 98 24 9918 13 172224 38036 1.9 12 6 2 3 25% 305333 56519 98%
c } 25.54  0 97 24 10771 13 180647 45857 1.9 12 6 2 3 25% 305333 56519 98%
c [ 25.54  0 60 24 10771  2 180647 45857 2.3 38 17 2 7 26% 305333 56519 98%
c - 26.49  0 60 25 10771  2 187629 41283 2.3 38 17 2 7 26% 305333 56519 98%
c B 26.90  0 60 25 10771  2 190040 43645 2.2 38 17 2 7 26% 305333 56519 98%
c - 28.74  0 60 26 10778  2 203707 42621 2.2 38 17 2 7 26% 305333 56519 98%
c W 29.82  0 59 26 10783  2 210041 48764 2.2 38 17 2 7 25% 305333 56519 98%
c - 31.24  0 59 27 10786  2 220459 43418 2.2 39 18 2 7 26% 305333 56519 98%
c ] 31.82  0 59 27 10786  2 224275 47126 2.2 39 18 2 7 26% 305333 56519 98%
c { 31.82  0 97 27 10786 13 224275 47126 1.9 12 6 2 3 25% 305333 56519 98%
c i 32.21  0 97 27 11017 13 226382 49023 1.9 12 6 2 3 25% 305333 56518 98%
c F 32.95  0 97 27 11490 13 231046 53299 1.9 12 6 2 3 25% 305333 56518 98%
c i 33.23  0 97 27 11640 13 232934 55048 1.9 12 6 2 3 25% 305333 56517 98%
c i 33.86  0 97 27 12028 13 237125 58888 1.9 12 7 2 3 25% 305333 56512 98%
c i 33.97  0 97 27 12078 13 237765 59441 1.9 12 7 2 3 25% 305333 56509 98%
c - 34.02  0 97 28 12084 13 237887 46862 1.9 12 7 2 3 25% 305281 56508 98%
c B 36.52  0 96 28 13698 13 253052 60692 1.9 13 7 2 3 25% 305281 56508 98%
c 
c  seconds  reductions    conflicts         size  tier2        variables
c         MB      restarts       redundant     glue  trail          remaining
c          level        rate          size/glue tier1  irredundant
c 
c - 37.13  0 96 29 14030 13 255989 51430 1.9 13 7 2 3 25% 305281 56508 98%
c i 38.37  0 96 29 14765 13 262773 57648 1.9 13 7 2 3 25% 305281 56507 98%
c - 40.50  0 96 30 15948 13 274767 41250 1.9 13 7 1 2 25% 305275 56507 98%
c } 40.52  0 96 30 15955 13 274912 41379 1.9 13 7 1 2 25% 305275 56507 98%
c [ 40.52  0 59 30 15955  2 274912 41379 2.2 39 18 2 7 26% 305275 56507 98%
c O 40.60  0 59 30 15955  2 276055 42486 2.2 39 18 2 7 26% 305275 56507 98%
c - 42.98  0 55 31 15967  2 294224 38512 2.1 38 18 2 7 25% 305275 56507 98%
c B 43.63  0 55 31 15969  2 300056 44157 2.1 38 18 2 7 25% 305275 56507 98%
c - 45.97  0 52 32 15971  2 314357 36164 2.1 38 18 2 7 25% 305275 56507 98%
c W 48.50  0 51 32 15971  2 325057 46619 2.1 39 18 2 7 25% 305275 56507 98%
c ] 49.37  0 50 32 15972  2 332104 53474 2.1 39 19 2 7 24% 305275 56507 98%
c { 49.37  0 96 32 15972 13 332104 53474 1.9 13 7 1 2 25% 305275 56507 98%
c - 49.92  0 96 33 16335 13 335166 36340 1.9 13 7 1 2 25% 305275 56507 98%
c W 52.68  0 96 33 17911 12 351061 51050 1.9 13 7 1 2 26% 305275 56507 98%
c - 53.68  0 95 34 18385 12 356653 39577 1.9 13 7 1 2 26% 305275 56507 98%
c # 57.27  0 95 34 20518 12 378062 59408 1.9 13 7 1 2 26% 305275 56507 98%
c - 57.44  0 95 35 20576 12 378819 42776 1.9 13 7 1 2 26% 305275 56507 98%
c } 60.91  0 94 35 22628 12 400485 62954 2.0 13 7 1 2 26% 305275 56507 98%
c [ 60.91  0 50 35 22628  2 400485 62954 2.1 39 19 2 7 24% 305275 56507 98%
c - 61.10  0 50 36 22628  2 401665 45591 2.1 39 18 2 7 24% 305275 56507 98%
c 
c  seconds  reductions    conflicts         size   tier2        variables
c         MB      restarts       redundant     glue   trail          remaining
c          level        rate          size/glue  tier1  irredundant
c 
c I 61.59  0 50 36 22628  2 406063 49873 2.1 38 18 2 7 24% 305275 56507 98%
c - 64.39  0 52 37 22628  2 425189 46174 2.2 41 19 2 7 24% 305275 56507 98%
c B 65.92  0 53 37 22634  2 435064 55784 2.2 41 19 2 7 24% 305275 56507 98%
c - 67.95  0 54 38 22641  2 449390 45290 2.1 41 19 2 7 24% 305275 56507 98%
c W 70.93  0 53 38 22646  2 465066 60570 2.1 41 20 2 8 24% 305275 56507 98%
c - 72.57  0 52 39 22650  2 474274 46000 2.1 42 20 2 8 24% 305275 56507 98%
c ] 72.59  0 52 39 22650  2 474448 46170 2.1 41 20 2 8 24% 305275 56507 98%
c { 72.59  0 94 39 22650 12 474448 46170 2.0 13 7 1 2 26% 305275 56507 98%
c B 76.15  0 93 39 24569 12 496067 66428 2.0 14 7 1 2 26% 305275 56507 98%
c - 76.92  0 93 40 24872 11 499837 49401 2.0 14 7 1 2 26% 305275 56507 98%
c i 81.37  0 92 40 26909 11 524100 72001 2.0 14 7 1 2 27% 305275 56506 98%
c - 81.80  0 92 41 27080 11 526077 53296 2.0 14 7 1 2 27% 305269 56506 98%
c W 82.46  0 92 41 27244 11 528069 55158 2.0 14 7 1 2 27% 305269 56506 98%
c - 87.26  0 91 42 29504 11 552998 56402 2.0 14 7 1 2 27% 305269 56506 98%
c F 88.55  0 90 42 30098 11 561070 63925 2.0 14 7 1 2 27% 305269 56506 98%
c } 88.89  0 90 42 30255 11 562732 65479 2.0 14 7 1 2 27% 305269 56506 98%
c [ 88.89  0 52 42 30255  2 562732 65479 2.1 41 20 2 8 24% 305269 56506 98%
c - 91.57  0 51 43 30263  2 580598 58393 2.1 40 19 2 8 24% 305269 56506 98%
c O 94.06  0 50 43 30264  2 595071 72447 2.1 40 19 2 7 24% 305269 56506 98%
c - 96.44  0 48 44 30270  2 608879 58203 2.2 40 19 2 7 24% 305269 56506 98%
c 
c  seconds  reductions    conflicts         size   tier2        variables
c         MB      restarts       redundant     glue   trail          remaining
c          level        rate          size/glue  tier1  irredundant
c 
c B 99.64  0 48 44 30279  2 630075 78939 2.2 41 19 2 7 24% 305269 56506 98%
c - 100.82  0 50 45 30282  2 637840 57748 2.2 42 19 2 7 25% 305269 56506 98%
c ] 104.10  0 49 45 30292  2 654236 73765 2.2 42 19 2 7 25% 305269 56506 98%
c { 104.10  0 90 45 30292 11 654236 73765 2.0 14 7 1 2 27% 305269 56506 98%
c i 105.46  0 90 45 30819 10 661623 80602 2.0 14 7 1 2 27% 305269 56505 98%
c B 106.31  0 90 45 31194 10 666075 84710 2.0 14 7 1 2 27% 305269 56505 98%
c - 106.69  0 90 46 31368 10 667485 59584 2.0 14 7 1 2 27% 305263 56505 98%
c i 109.49  0 91 46 32578 10 682260 73355 2.0 14 7 1 2 27% 305263 56502 98%
c - 112.63  0 90 47 33970 10 697807 63424 2.0 14 7 1 2 27% 305240 56501 98%
c W 114.58  0 91 47 34418 10 703079 68357 2.0 14 7 1 2 27% 305240 56501 98%
c i 114.91  0 91 47 34600 10 704898 70055 2.0 14 7 1 2 27% 305240 56500 98%
c - 119.80  0 90 48 36698 10 728815 67108 2.0 14 7 1 2 27% 305234 56500 98%
c # 122.22  0 90 48 37734 10 741080 78597 2.0 15 7 1 2 27% 305234 56500 98%
c } 125.90  0 90 48 39356 10 759216 95562 2.0 15 7 1 2 27% 305234 56500 98%
c [ 125.90  0 49 48 39356  2 759216 95562 2.2 42 19 2 7 25% 305234 56500 98%
c - 126.08  0 49 49 39356  2 760500 70305 2.2 42 19 2 7 25% 305234 56500 98%
c W 129.56  0 47 49 39359  2 780082 89448 2.2 40 18 2 7 24% 305234 56500 98%
c - 131.43  0 46 50 39360  2 792866 71480 2.2 40 18 2 7 23% 305234 56500 98%
c I 135.52  0 45 50 39360  2 820084 98028 2.2 40 18 2 7 23% 305234 56500 98%
c - 136.65  0 46 51 39361  2 825913 70479 2.3 40 18 2 7 23% 305234 56500 98%
c 
c  seconds   reductions    conflicts         size   tier2        variables
c          MB      restarts       redundant     glue   trail          remaining
c           level        rate          size/glue  tier1  irredundant
c 
c - 142.63  0 49 52 39361  2 859644 71303 2.3 42 18 2 7 23% 305234 56500 98%
c B 142.86  0 49 52 39361  2 861085 72703 2.3 42 18 2 7 24% 305234 56500 98%
c ] 145.71  0 49 52 39361  2 877014 88318 2.2 43 19 2 7 23% 305234 56500 98%
c { 145.71  0 90 52 39361 10 877014 88318 2.0 15 7 1 2 27% 305234 56500 98%
c - 148.64  0 90 53 40566 10 894056 73712 2.0 15 7 1 2 27% 305234 56500 98%
c B 150.17  0 89 53 41309 10 903086 82145 2.0 15 7 1 2 27% 305234 56500 98%
c - 155.11  0 90 54 43554 10 929149 77889 2.0 15 7 1 2 28% 305234 56500 98%
c W 158.73  0 89 54 44744 10 946087 93704 2.1 15 7 1 2 28% 305234 56500 98%
c - 162.51  0 88 55 46345 10 964926 81506 2.1 15 7 1 2 28% 305234 56500 98%
c F 167.35  0 88 55 48377 10 990089 104957 2.1 15 7 1 2 28% 305234 56500 98%
c - 169.75  0 88 56 49251  9 1001385 84772 2.1 15 7 1 2 28% 305234 56500 98%
c } 170.45  0 88 56 49505  9 1005527 88685 2.1 15 7 1 2 28% 305234 56500 98%
c [ 170.45  0 49 56 49505  2 1005527 88685 2.2 43 19 2 7 23% 305234 56500 98%
c W 176.03  0 49 56 49515  2 1035091 117640 2.3 42 18 2 7 24% 305234 56500 98%
c - 176.61  0 49 57 49518  2 1038528 86365 2.2 41 18 2 7 24% 305234 56500 98%
c ] 179.88  0 47 57 49526  2 1058897 106332 2.2 40 19 2 7 23% 305234 56500 98%
c ? 179.88  0 47 57 49526  2 1058897 106332 2.2 40 19 2 7 23% 305234 56500 98%
c 
c --- [ result ] -------------------------------------------------------------
c 
c writing result to '/private/tmp/p97-ordinal-continuationOrder.sol'
c 
c --- [ run-time profiling ] -------------------------------------------------
c 
c process time taken by individual solving procedures
c (percentage relative to process time for solving)
c 
c       179.83  100.00% search
c        96.24   53.52% unstable
c        78.31   43.55% stable
c         5.28    2.94% walk
c         0.06    0.03% parse
c         0.00    0.00% lucky
c         0.00    0.00% simplify
c   =================================
c       179.83   99.97% solve
c 
c last line shows process time for solving
c (percentage relative to total process time)
c 
c --- [ statistics ] ---------------------------------------------------------
c 
c chronological:            464474        43.86 %  of conflicts
c conflicts:               1058897      5888.34    per second
c decisions:               6735038     37452.38    per second
c fixed:                      1061         1.84 %  of all variables
c learned:                 1003867        94.80 %  per conflict
c learned_lits:           35666653       100.00 %  learned literals
c minimized:                     0         0.00 %  learned literals
c shrunken:                4450900        12.48 %  learned literals
c minishrunken:            4058953        11.38 %  learned literals
c otfs:                      17204         1.62 %  of conflict
c propagations:         2124988834        11.82 M  per second
c reduced:                  897198        84.73 %  per conflict
c rephased:                     45     23531.04    interval
c restarts:                  49526        21.38    interval
c stabilizing:                  11        48.13 %  of conflicts
c subsumed:                    436         0.03 %  of all clauses
c strengthened:              16986         1.29 %  of all clauses
c ticks:               10782085592         5.07    propagation
c walked:                       14     75635.50    interval
c 
c seconds are measured in process time for solving
c 
c --- [ glue usage ] ---------------------------------------------------------
c 
c focused glue 1 used 1060799 clauses 63.16% accumulated 63.16% tier1
c focused glue 2 used 282546 clauses 16.82% accumulated 79.99% tier2
c 
c stable glue 2 used 515430 clauses 12.14% accumulated 57.38% tier1
c stable glue 3 used 234938 clauses 5.535% accumulated 62.92%
c stable glue 4-5 used 386850 clauses 9.115% accumulated 72.03%
c stable glue 6 used 140098 clauses 3.301% accumulated 75.33%
c stable glue 7 used 111574 clauses 2.628% accumulated 77.96% tier2
c 
c 
c --- [ resources ] ----------------------------------------------------------
c 
c total process time since initialization:       179.89    seconds
c total real time since initialization:          180.01    seconds
c maximum resident set size of process:       368320.00    MB
c 
c --- [ shutting down ] ------------------------------------------------------
c 
c exit 0
